scheduleLength  = 7;
numberEmployees = 64;
numberShifts    = 3;
minDaysOff      = 1;
maxDaysOff      = 4;
minDaysWork     = 3;
maxDaysWork     = 6;
shiftNames      = ["D", "A", "N"];
minDaysShift    = [2, 2, 2];
maxDaysShift    = [6, 6, 5];

requirements = [| 35, 35, 30, 30, 25, 25, 15,
                | 15, 15, 20, 15, 15, 20, 15,
                | 10, 10, 10, 10, 10, 0, 0, |];

numberForbiddenShifts2 = 3;
forbiddenShifts2 = [| 3, 1,
                    | 3, 2,
                    | 2, 1 |];

numberForbiddenShifts3 = 4;
forbiddenShifts3 = [| 3, 3,
                    | 2, 1,
                    | 3, 2,
                    | 3, 1 |];

